language ESSENCE' 1.0
letting lastdx=91
letting cage be [
[8,6,4,0,0, 0,0, 0,0, 0,0],
[25,3,10,3,9,4,9,4,8,0,0],
[5,11,4,0,0, 0,0, 0,0, 0,0],
[15,13,16,14,16,0,0, 0,0, 0,0],
[1,9,14,0,0, 0,0, 0,0, 0,0],
[11,6,12,0,0, 0,0, 0,0, 0,0],
[19,14,4,13,4,0,0, 0,0, 0,0],
[23,5,4,4,4,3,4,0,0, 0,0],
[41,10,4,10,5,11,5,11,6,0,0],
[25,4,16,5,16,0,0, 0,0, 0,0],
[3,10,9,0,0, 0,0, 0,0, 0,0],
[20,5,13,6,13,0,0, 0,0, 0,0],
[7,16,6,0,0, 0,0, 0,0, 0,0],
[5,1,16,0,0, 0,0, 0,0, 0,0],
[2,4,6,0,0, 0,0, 0,0, 0,0],
[40,2,16,3,16,3,15,2,15,2,14],
[29,8,16,9,16,10,16,10,15,0,0],
[14,12,1,11,1,0,0, 0,0, 0,0],
[16,16,3,0,0, 0,0, 0,0, 0,0],
[41,10,3,10,2,11,2,11,3,12,3],
[6,5,5,0,0, 0,0, 0,0, 0,0],
[11,14,1,0,0, 0,0, 0,0, 0,0],
[5,12,11,0,0, 0,0, 0,0, 0,0],
[23,9,5,8,5,7,5,7,6,0,0],
[9,11,13,0,0, 0,0, 0,0, 0,0],
[55,1,11,1,12,1,13,1,14,1,15],
[4,4,5,0,0, 0,0, 0,0, 0,0],
[46,16,14,16,15,16,16,15,16,15,15],
[34,14,8,14,7,15,7,15,6,0,0],
[18,6,11,7,11,0,0, 0,0, 0,0],
[47,10,12,10,11,10,10,9,10,9,11],
[3,8,12,0,0, 0,0, 0,0, 0,0],
[51,15,13,14,13,14,14,15,14,14,15],
[36,13,14,13,15,12,15,11,15,0,0],
[10,15,2,0,0, 0,0, 0,0, 0,0],
[22,5,3,6,3,7,3,7,2,7,1],
[27,8,13,9,13,9,12,10,13,10,14],
[17,13,10,13,11,12,10,0,0, 0,0],
[24,8,15,9,15,0,0, 0,0, 0,0],
[16,4,11,0,0, 0,0, 0,0, 0,0],
[19,13,3,13,2,12,2,13,1,0,0],
[37,12,6,13,6,13,5,14,5,14,6],
[18,3,5,3,6,0,0, 0,0, 0,0],
[23,15,1,16,1,16,2,0,0, 0,0],
[21,4,2,4,3,0,0, 0,0, 0,0],
[10,8,3,0,0, 0,0, 0,0, 0,0],
[41,16,13,16,12,15,12,15,11,16,11],
[35,3,7,3,8,2,8,2,7,0,0],
[45,6,6,6,5,6,7,6,8,5,8],
[42,5,12,5,11,5,10,4,10,0,0],
[15,11,14,12,14,0,0, 0,0, 0,0],
[46,2,5,2,6,1,6,1,5,0,0],
[6,4,15,5,15,0,0, 0,0, 0,0],
[10,16,9,0,0, 0,0, 0,0, 0,0],
[6,1,9,0,0, 0,0, 0,0, 0,0],
[16,8,10,8,11,0,0, 0,0, 0,0],
[15,2,3,0,0, 0,0, 0,0, 0,0],
[25,12,5,12,4,0,0, 0,0, 0,0],
[40,5,1,6,1,6,2,5,2,0,0],
[14,7,16,0,0, 0,0, 0,0, 0,0],
[40,10,7,11,7,12,7,13,7,0,0],
[18,9,6,10,6,0,0, 0,0, 0,0],
[34,7,12,7,13,7,14,8,14,0,0],
[8,1,3,0,0, 0,0, 0,0, 0,0],
[42,2,13,2,12,2,11,3,11,3,12],
[6,4,7,0,0, 0,0, 0,0, 0,0],
[5,8,2,0,0, 0,0, 0,0, 0,0],
[32,6,14,6,15,6,16,7,15,0,0],
[6,1,1,1,2,0,0, 0,0, 0,0],
[14,1,4,2,4,0,0, 0,0, 0,0],
[20,1,7,1,8,0,0, 0,0, 0,0],
[26,1,10,2,10,2,9,0,0, 0,0],
[24,2,1,3,1,4,1,0,0, 0,0],
[16,2,2,0,0, 0,0, 0,0, 0,0],
[18,3,2,3,3,0,0, 0,0, 0,0],
[20,3,13,3,14,4,14,5,14,0,0],
[24,4,12,4,13,0,0, 0,0, 0,0],
[29,5,6,5,7,0,0, 0,0, 0,0],
[35,5,9,6,9,6,10,7,10,7,9],
[34,7,4,8,4,9,4,9,3,0,0],
[31,7,7,8,7,8,6,9,7,0,0],
[14,7,8,8,8,0,0, 0,0, 0,0],
[57,8,1,9,1,9,2,10,1,0,0],
[39,8,9,9,9,9,8,10,8,0,0],
[15,11,10,11,11,0,0, 0,0, 0,0],
[21,11,12,12,12,0,0, 0,0, 0,0],
[19,11,16,12,16,0,0, 0,0, 0,0],
[6,12,8,0,0, 0,0, 0,0, 0,0],
[21,13,8,13,9,0,0, 0,0, 0,0],
[35,14,2,14,3,15,3,15,4,0,0],
[18,14,10,15,10,16,10,0,0, 0,0],
[19,15,5,16,5,16,4,0,0, 0,0]
]
